Welcome to the CBC MILP Solver 
Version: 2.10.3 
Build Date: Dec 15 2019 

command line - /home/pineda/.local/lib/python3.14/site-packages/pulp/apis/../solverdir/cbc/linux/i64/cbc /tmp/8da92fb14c394b2d82504d9cc8a31c5f-pulp.mps -sec 180 -ratio 0.0 -timeMode elapsed -solve -printingOptions all -solution /tmp/8da92fb14c394b2d82504d9cc8a31c5f-pulp.sol (default strategy 1)
At line 2 NAME          MODEL
At line 3 ROWS
At line 392 COLUMNS
At line 1883 RHS
At line 2271 BOUNDS
At line 2432 ENDATA
Problem MODEL has 387 rows, 160 columns and 1165 elements
Coin0008I MODEL read with 0 errors
seconds was changed from 1e+100 to 180
ratioGap was changed from 0 to 0
Option for timeMode changed from cpu to elapsed
Continuous objective value is 0.0666667 - 0.00 seconds
Cgl0003I 0 fixed, 0 tightened bounds, 25 strengthened rows, 0 substitutions
Cgl0004I processed model has 357 rows, 130 columns (130 integer (130 of which binary)) and 1130 elements
Cutoff increment increased from 1e-05 to 0.9999
Cbc0045I 5 integer variables out of 130 objects (130 integer) have cost of 1 - high priority
Cbc0045I branch on satisfied Y create fake objective Y random cost Y
Cbc0038I Initial state - 64 integers unsatisfied sum - 3.56667
Cbc0038I Pass   1: suminf.    3.20000 (32) obj. 0.2 iterations 68
Cbc0038I Pass   2: suminf.    0.00000 (0) obj. 2 iterations 84
Cbc0038I Solution found of 2
Cbc0038I Before mini branch and bound, 61 integers at bound fixed and 0 continuous
Cbc0038I Full problem 357 rows 130 columns, reduced to 192 rows 69 columns - 5 fixed gives 124, 49 - ok now
Cbc0038I Full problem 357 rows 130 columns, reduced to 122 rows 48 columns
Cbc0038I Mini branch and bound did not improve solution (0.02 seconds)
Cbc0038I Round again with cutoff of 0.92009
Cbc0038I Pass   3: suminf.    3.20000 (32) obj. 0.2 iterations 0
Cbc0038I Pass   4: suminf.   11.96117 (26) obj. 0.92009 iterations 76
Cbc0038I Pass   5: suminf.   15.34130 (57) obj. 0.92009 iterations 65
Cbc0038I Pass   6: suminf.    3.92009 (14) obj. 0.92009 iterations 86
Cbc0038I Pass   7: suminf.    6.88482 (44) obj. 0.92009 iterations 101
Cbc0038I Pass   8: suminf.    3.94118 (30) obj. 0.882353 iterations 65
Cbc0038I Pass   9: suminf.    3.93866 (31) obj. 0.92009 iterations 41
Cbc0038I Pass  10: suminf.    8.58824 (43) obj. 0.294118 iterations 33
Cbc0038I Pass  11: suminf.    8.00000 (32) obj. 0.285714 iterations 21
Cbc0038I Pass  12: suminf.    5.38344 (64) obj. 0.92009 iterations 75
Cbc0038I Pass  13: suminf.    3.20000 (32) obj. 0.2 iterations 56
Cbc0038I Pass  14: suminf.   14.72144 (32) obj. 0.92009 iterations 47
Cbc0038I Pass  15: suminf.   12.88126 (28) obj. 0.92009 iterations 46
Cbc0038I Pass  16: suminf.   13.80135 (30) obj. 0.92009 iterations 73
Cbc0038I Pass  17: suminf.   11.96117 (26) obj. 0.92009 iterations 62
Cbc0038I Pass  18: suminf.   11.04108 (24) obj. 0.92009 iterations 56
Cbc0038I Pass  19: suminf.   13.69252 (59) obj. 0.92009 iterations 65
Cbc0038I Pass  20: suminf.    3.92009 (14) obj. 0.92009 iterations 105
Cbc0038I Pass  21: suminf.    7.36072 (24) obj. 0.92009 iterations 85
Cbc0038I Pass  22: suminf.   12.13643 (55) obj. 0.92009 iterations 93
Cbc0038I Pass  23: suminf.    4.30270 (42) obj. 0.92009 iterations 88
Cbc0038I Pass  24: suminf.    4.05365 (53) obj. 0.92009 iterations 46
Cbc0038I Pass  25: suminf.    9.00000 (34) obj. 0.428571 iterations 29
Cbc0038I Pass  26: suminf.    3.50000 (37) obj. 0.333333 iterations 114
Cbc0038I Pass  27: suminf.    3.20000 (32) obj. 0.2 iterations 7
Cbc0038I Pass  28: suminf.   14.72144 (32) obj. 0.92009 iterations 54
Cbc0038I Pass  29: suminf.    8.28081 (18) obj. 0.92009 iterations 52
Cbc0038I Pass  30: suminf.    6.13436 (50) obj. 0.92009 iterations 118
Cbc0038I Pass  31: suminf.    4.66034 (38) obj. 0.92009 iterations 88
Cbc0038I Pass  32: suminf.    3.89383 (51) obj. 0.92009 iterations 41
Cbc0038I Pass  33: suminf.    7.89855 (43) obj. 0.246377 iterations 46
Cbc0038I Pass  34: suminf.    4.84018 (32) obj. 0.92009 iterations 103
Cbc0038I Pass  35: suminf.    3.20000 (32) obj. 0.2 iterations 19
Cbc0038I Pass  36: suminf.    3.92009 (14) obj. 0.92009 iterations 53
Cbc0038I Pass  37: suminf.    4.00999 (49) obj. 0.92009 iterations 99
Cbc0038I Pass  38: suminf.    4.78158 (45) obj. 0.92009 iterations 78
Cbc0038I Pass  39: suminf.   12.56438 (56) obj. 0.92009 iterations 109
Cbc0038I Pass  40: suminf.    7.85960 (51) obj. 0.92009 iterations 70
Cbc0038I Pass  41: suminf.    5.59595 (53) obj. 0.92009 iterations 17
Cbc0038I Pass  42: suminf.    3.75810 (68) obj. 0.92009 iterations 10
Cbc0038I Pass  43: suminf.    3.75810 (68) obj. 0.92009 iterations 0
Cbc0038I Pass  44: suminf.    7.76456 (58) obj. 0.92009 iterations 62
Cbc0038I Pass  45: suminf.    5.60972 (55) obj. 0.92009 iterations 53
Cbc0038I Pass  46: suminf.    5.56675 (54) obj. 0.92009 iterations 9
Cbc0038I Pass  47: suminf.    6.17662 (54) obj. 0.5 iterations 57
Cbc0038I Pass  48: suminf.    1.12161 (54) obj. 0.92009 iterations 29
Cbc0038I Pass  49: suminf.    1.11769 (59) obj. 0.92009 iterations 24
Cbc0038I Pass  50: suminf.    8.00733 (49) obj. 0.589744 iterations 61
Cbc0038I Pass  51: suminf.    6.00000 (30) obj. 0.454545 iterations 35
Cbc0038I Pass  52: suminf.    0.93626 (53) obj. 0.92009 iterations 24
Cbc0038I Pass  53: suminf.    0.93626 (53) obj. 0.92009 iterations 0
Cbc0038I Pass  54: suminf.    6.36364 (30) obj. 0.545455 iterations 73
Cbc0038I Pass  55: suminf.    1.12161 (54) obj. 0.92009 iterations 42
Cbc0038I Pass  56: suminf.    1.11769 (59) obj. 0.92009 iterations 27
Cbc0038I Pass  57: suminf.    6.05220 (53) obj. 0.92009 iterations 86
Cbc0038I Pass  58: suminf.    5.84729 (53) obj. 0.92009 iterations 19
Cbc0038I Pass  59: suminf.    9.31036 (45) obj. 0.92009 iterations 22
Cbc0038I Pass  60: suminf.    4.22886 (54) obj. 0.92009 iterations 10
Cbc0038I Pass  61: suminf.    3.97123 (52) obj. 0.92009 iterations 16
Cbc0038I Pass  62: suminf.    7.84774 (52) obj. 0.92009 iterations 14
Cbc0038I Pass  63: suminf.    7.82163 (52) obj. 0.92009 iterations 7
Cbc0038I Pass  64: suminf.    4.03292 (55) obj. 0.92009 iterations 23
Cbc0038I Pass  65: suminf.   14.58103 (35) obj. 0.92009 iterations 72
Cbc0038I Pass  66: suminf.    6.75833 (63) obj. 0.475 iterations 82
Cbc0038I Pass  67: suminf.    6.11111 (28) obj. 0.555556 iterations 46
Cbc0038I Pass  68: suminf.    1.10851 (54) obj. 0.92009 iterations 19
Cbc0038I Pass  69: suminf.    1.10573 (59) obj. 0.92009 iterations 26
Cbc0038I Pass  70: suminf.    7.60256 (49) obj. 0.519231 iterations 58
Cbc0038I Pass  71: suminf.    7.04124 (46) obj. 0.649485 iterations 21
Cbc0038I Pass  72: suminf.    5.35479 (44) obj. 0.92009 iterations 18
Cbc0038I Pass  73: suminf.    1.10851 (54) obj. 0.92009 iterations 12
Cbc0038I Pass  74: suminf.    1.10573 (59) obj. 0.92009 iterations 30
Cbc0038I Pass  75: suminf.    7.75000 (28) obj. 0.5 iterations 53
Cbc0038I Pass  76: suminf.    3.82836 (39) obj. 0.88806 iterations 63
Cbc0038I Pass  77: suminf.    3.70298 (46) obj. 0.92009 iterations 15
Cbc0038I Pass  78: suminf.    9.55491 (63) obj. 0.446545 iterations 55
Cbc0038I Pass  79: suminf.    8.96927 (61) obj. 0.453901 iterations 13
Cbc0038I Pass  80: suminf.    8.63723 (45) obj. 0.341289 iterations 24
Cbc0038I Pass  81: suminf.    2.27934 (43) obj. 0.92009 iterations 27
Cbc0038I Pass  82: suminf.    1.01424 (41) obj. 0.92009 iterations 24
Cbc0038I Pass  83: suminf.    7.00000 (38) obj. 0.5 iterations 60
Cbc0038I Pass  84: suminf.    6.11111 (28) obj. 0.555556 iterations 26
Cbc0038I Pass  85: suminf.    0.94615 (53) obj. 0.92009 iterations 41
Cbc0038I Pass  86: suminf.    0.94615 (53) obj. 0.92009 iterations 1
Cbc0038I Pass  87: suminf.    6.10843 (43) obj. 0.493976 iterations 81
Cbc0038I Pass  88: suminf.    1.10851 (54) obj. 0.92009 iterations 25
Cbc0038I Pass  89: suminf.    1.10573 (59) obj. 0.92009 iterations 29
Cbc0038I Pass  90: suminf.    8.50746 (45) obj. 0.5 iterations 49
Cbc0038I Pass  91: suminf.    7.57895 (44) obj. 0.592105 iterations 30
Cbc0038I Pass  92: suminf.    7.04124 (46) obj. 0.649485 iterations 18
Cbc0038I Pass  93: suminf.    5.35479 (44) obj. 0.92009 iterations 15
Cbc0038I Pass  94: suminf.    1.10851 (54) obj. 0.92009 iterations 11
Cbc0038I Pass  95: suminf.    1.10573 (59) obj. 0.92009 iterations 22
Cbc0038I Pass  96: suminf.    7.59677 (44) obj. 0.520161 iterations 48
Cbc0038I Pass  97: suminf.    7.04124 (46) obj. 0.649485 iterations 14
Cbc0038I Pass  98: suminf.    5.35479 (44) obj. 0.92009 iterations 21
Cbc0038I Pass  99: suminf.    1.10851 (54) obj. 0.92009 iterations 18
Cbc0038I Pass 100: suminf.    1.10573 (59) obj. 0.92009 iterations 28
Cbc0038I Pass 101: suminf.    8.59459 (43) obj. 0.540541 iterations 56
Cbc0038I Pass 102: suminf.   18.01232 (42) obj. 0.92009 iterations 76
Cbc0038I No solution found this major pass
Cbc0038I Before mini branch and bound, 2 integers at bound fixed and 0 continuous
Cbc0038I Full problem 357 rows 130 columns, reduced to 353 rows 128 columns - 7 fixed gives 292, 113 - still too large
Cbc0038I Mini branch and bound did not improve solution (0.22 seconds)
Cbc0038I After 0.22 seconds - Feasibility pump exiting with objective of 2 - took 0.20 seconds
Cbc0012I Integer solution of 2 found by feasibility pump after 0 iterations and 0 nodes (0.22 seconds)
Cbc0038I Full problem 357 rows 130 columns, reduced to 180 rows 66 columns - 16 fixed gives 72, 30 - ok now
Cbc0012I Integer solution of 1 found by DiveCoefficient after 6620 iterations and 0 nodes (0.96 seconds)
Cbc0031I 5 added rows had average density of 14.4
Cbc0013I At root node, 5 cuts changed objective from 0.2 to 1 in 100 passes
Cbc0014I Cut generator 0 (Probing) - 40 row cuts average 32.4 elements, 0 column cuts (0 active)  in 0.050 seconds - new frequency is -100
Cbc0014I Cut generator 1 (Gomory) - 2120 row cuts average 71.3 elements, 0 column cuts (0 active)  in 0.069 seconds - new frequency is 1
Cbc0014I Cut generator 2 (Knapsack) - 2 row cuts average 10.0 elements, 0 column cuts (0 active)  in 0.022 seconds - new frequency is -100
Cbc0014I Cut generator 3 (Clique) - 0 row cuts average 0.0 elements, 0 column cuts (0 active)  in 0.004 seconds - new frequency is -100
Cbc0014I Cut generator 4 (MixedIntegerRounding2) - 21 row cuts average 35.0 elements, 0 column cuts (0 active)  in 0.036 seconds - new frequency is -100
Cbc0014I Cut generator 5 (FlowCover) - 0 row cuts average 0.0 elements, 0 column cuts (0 active)  in 0.003 seconds - new frequency is -100
Cbc0014I Cut generator 6 (TwoMirCuts) - 273 row cuts average 49.7 elements, 0 column cuts (0 active)  in 0.029 seconds - new frequency is 1
Cbc0014I Cut generator 7 (ZeroHalf) - 151 row cuts average 9.2 elements, 0 column cuts (0 active)  in 0.096 seconds - new frequency is 1
Cbc0001I Search completed - best objective 1, took 6620 iterations and 0 nodes (0.96 seconds)
Cbc0035I Maximum depth 0, 0 variables fixed on reduced cost
Cuts at root node changed objective from 0.2 to 1
Probing was tried 100 times and created 40 cuts of which 0 were active after adding rounds of cuts (0.050 seconds)
Gomory was tried 100 times and created 2120 cuts of which 0 were active after adding rounds of cuts (0.069 seconds)
Knapsack was tried 100 times and created 2 cuts of which 0 were active after adding rounds of cuts (0.022 seconds)
Clique was tried 100 times and created 0 cuts of which 0 were active after adding rounds of cuts (0.004 seconds)
MixedIntegerRounding2 was tried 100 times and created 21 cuts of which 0 were active after adding rounds of cuts (0.036 seconds)
FlowCover was tried 100 times and created 0 cuts of which 0 were active after adding rounds of cuts (0.003 seconds)
TwoMirCuts was tried 100 times and created 273 cuts of which 0 were active after adding rounds of cuts (0.029 seconds)
ZeroHalf was tried 100 times and created 151 cuts of which 0 were active after adding rounds of cuts (0.096 seconds)

Result - Optimal solution found

Objective value:                1.00000000
Enumerated nodes:               0
Total iterations:               6620
Time (CPU seconds):             0.93
Time (Wallclock seconds):       0.97

Option for printingOptions changed from normal to all
Total time (CPU seconds):       0.94   (Wallclock seconds):       0.98

